2
1000 6
45
150 1 3
151 1 2
152 1 2
153 1 2
154 1 3
155 1 5
156 1 4
157 1 3
159 1 2
160 1 2
161 1 1
162 1 1
164 1 2
165 1 4
166 1 3
167 1 1
168 1 6
170 1 3
171 1 3
172 1 2
173 1 3
176 1 5
177 1 2
178 1 5
179 1 4
180 1 3
181 1 1
182 1 1
183 1 7
184 1 2
185 1 3
186 1 2
187 1 2
188 1 1
189 1 2
191 1 3
192 1 3
193 1 3
194 1 1
195 1 1
196 1 2
197 1 3
198 1 3
199 1 1
200 1 3
